[2026-03-01T17:24:33] Logging to: /run/media/saveas/Secondary-Storage/Masters/CS234/CS234_Reinforcement_Learning/Final Project/CS234_Final_Project/results/trajectory_optimization/nlp/TRACK2_280m/base/run_trajopt_demo_output.log
======================================================================
IPOPT TRAJECTORY OPTIMIZATION DEMO (SINGLE STAGE)
======================================================================

1. Loading track: /run/media/saveas/Secondary-Storage/Masters/CS234/CS234_Reinforcement_Learning/Final Project/CS234_Final_Project/maps/TRACK2_280m.mat
   Track length: 280.0 m

2. Creating vehicle model...
   Vehicle: SingleTrackModel(VW_Golf_GTI, weight_transfer=enabled)

3. Loaded obstacles from map: 0

4. Setup:
   N = 120
   ds = 2.33 m
   Obstacle subsamples/segment = 7
   Obstacle enforce midpoints = False
   Obstacle use slack = False
   Track buffer = 0.00 m
   lambda_u = 0.005
   vehicle_radius_m = 0.00
   eps_s = 0.100, eps_kappa = 0.050
   Solver path = Python/CasADi (IPOPT)

======================================================================
SINGLE STAGE: COMBINED OBJECTIVE (ACCEPTANCE-GATED)
======================================================================
Acceptance gates: success=True, max_slack<=0.000e+00, min_clearance>=-0.0010 m
Acceptance policy: practical epsilon mode (allows tiny negative dense clearance).
Initializer: obstacle_aware_init=True, sigma=8.00 m, margin=0.30 m

Attempt 1/4: baseline
  N=120, ds=2.333 m, subsamples=7, obstacle_clearance_m=0.000
Exception of type: DYNAMIC_LIBRARY_FAILURE in file "Common/IpLibraryLoader.cpp" at line 72:
 Exception message: libhsl.so: cannot open shared object file: No such file or directory

EXIT: Library loading failure.
      solver  :   t_proc      (avg)   t_wall      (avg)    n_eval
       total  | 742.00us (742.00us) 740.89us (740.89us)         1
Solver failed with ipopt.linear_solver=ma57: Error in Opti::solve [OptiNode] at .../casadi/core/optistack.cpp:217:
.../casadi/core/optistack_internal.cpp:1338: Assertion "return_success(accept_limit)" failed:
Solver failed. You may use opti.debug.value to investigate the latest values of variables. return_status is 'Invalid_Option'
Retrying with IPOPT default linear solver.

******************************************************************************
This program contains Ipopt, a library for large-scale nonlinear optimization.
 Ipopt is released as open source code under the Eclipse Public License (EPL).
         For more information visit https://github.com/coin-or/Ipopt
******************************************************************************

This is Ipopt version 3.14.11, running with linear solver MUMPS 5.4.1.

Number of nonzeros in equality constraint Jacobian...:    13205
Number of nonzeros in inequality constraint Jacobian.:     1416
Number of nonzeros in Lagrangian Hessian.............:     5071

Total number of variables............................:     1210
                     variables with only lower bounds:        0
                variables with lower and upper bounds:        0
                     variables with only upper bounds:        0
Total number of equality constraints.................:      970
Total number of inequality constraints...............:     1054
        inequality constraints with only lower bounds:      691
   inequality constraints with lower and upper bounds:        0
        inequality constraints with only upper bounds:      363

iter    objective    inf_pr   inf_du lg(mu)  ||d||  lg(rg) alpha_du alpha_pr  ls
   0  2.8000000e+01 1.95e-01 1.06e+00  -1.0 0.00e+00    -  0.00e+00 0.00e+00   0
   1  2.7850143e+01 1.99e+00 1.10e+03  -1.0 6.62e+00   2.0 7.01e-01 1.00e+00H  1
   2  2.7850591e+01 1.89e+00 8.55e+02  -1.0 1.87e-01   3.3 7.03e-01 2.50e-01h  3
   3  2.7851552e+01 1.81e+00 1.92e+03  -1.0 3.65e-01   3.8 1.00e+00 1.25e-01h  4
   4  2.7852454e+01 1.73e+00 2.47e+03  -1.0 2.82e-01   4.2 8.61e-01 1.25e-01h  4
   5  2.7863908e+01 4.63e-01 1.91e+04  -1.0 3.01e-01   3.7 1.00e+00 1.00e+00h  1
   6  2.7874909e+01 5.77e-02 5.52e+03  -1.0 1.67e-01   3.2 1.00e+00 1.00e+00h  1
   7  2.7877106e+01 1.83e-03 3.96e+02  -1.0 3.39e-02   2.7 1.00e+00 1.00e+00h  1
   8  2.7877003e+01 9.82e-06 6.41e-01  -1.0 1.84e-04   2.3 1.00e+00 1.00e+00h  1
   9  2.7876780e+01 1.24e-06 1.39e-02  -1.7 2.23e-04   1.8 1.00e+00 1.00e+00h  1
iter    objective    inf_pr   inf_du lg(mu)  ||d||  lg(rg) alpha_du alpha_pr  ls
  10  2.7876210e+01 1.76e-06 1.19e-02  -3.8 5.69e-04   1.3 1.00e+00 1.00e+00h  1
  11  2.7874502e+01 1.55e-05 1.18e-02  -3.8 1.71e-03   0.8 1.00e+00 1.00e+00h  1
  12  2.7869381e+01 1.20e-04 1.18e-02  -3.8 5.12e-03   0.4 1.00e+00 1.00e+00h  1
  13  2.7854064e+01 8.66e-04 1.18e-02  -3.8 1.53e-02  -0.1 1.00e+00 1.00e+00h  1
  14  2.7808431e+01 4.85e-03 1.17e-02  -3.8 4.56e-02  -0.6 1.00e+00 1.00e+00h  1
  15  2.7673440e+01 1.44e-02 1.16e-02  -3.8 1.35e-01  -1.1 1.00e+00 1.00e+00h  1
  16  2.7281875e+01 1.71e-01 1.12e-02  -3.8 3.92e-01  -1.5 1.00e+00 1.00e+00h  1
  17  2.6205637e+01 1.17e+00 1.77e-02  -3.8 1.08e+00  -2.0 1.00e+00 1.00e+00f  1
  18  2.5972326e+01 1.19e+00 3.99e-02  -3.8 4.06e-01  -1.6 1.00e+00 6.90e-01h  1
  19  2.4948502e+01 1.15e+00 3.85e-02  -3.8 7.70e+01    -  4.11e-02 3.69e-02f  1
iter    objective    inf_pr   inf_du lg(mu)  ||d||  lg(rg) alpha_du alpha_pr  ls
  20  2.3967773e+01 1.13e+00 3.66e-02  -3.8 1.96e+01    -  3.62e-01 5.01e-02f  1
  21  1.9376417e+01 3.40e+00 3.44e-02  -3.8 1.63e+01    -  2.07e-01 2.82e-01f  1
  22  1.7818512e+01 3.11e+00 3.82e-02  -3.8 1.51e+01    -  7.33e-01 1.58e-01h  1
  23  1.7663401e+01 1.28e+01 6.19e-02  -3.8 4.23e+02    -  3.85e-03 1.73e-02h  1
  24  1.6692122e+01 1.09e+01 9.01e-01  -3.8 2.14e+01    -  4.69e-02 1.38e-01h  1
  25  1.6528498e+01 1.05e+01 8.66e-01  -3.8 1.73e+01    -  9.13e-02 3.81e-02h  1
  26  1.6045172e+01 9.20e+00 7.49e-01  -3.8 2.43e+01    -  5.98e-02 1.24e-01h  1
  27  1.6149282e+01 8.36e+00 6.77e-01  -3.8 3.53e+00  -2.1 3.63e-02 9.14e-02h  1
  28  1.6360276e+01 6.76e+00 1.13e+00  -3.8 3.33e+00  -1.6 2.40e-02 1.90e-01h  1
  29  1.6530171e+01 5.39e+00 9.11e-01  -3.8 6.79e+00  -2.1 8.12e-02 1.95e-01h  1
iter    objective    inf_pr   inf_du lg(mu)  ||d||  lg(rg) alpha_du alpha_pr  ls
  30  1.6573087e+01 5.09e+00 8.56e-01  -3.8 2.40e+00  -1.7 1.68e-02 5.58e-02h  1
  31  1.6618689e+01 4.79e+00 7.77e-01  -3.8 2.64e+00  -1.3 8.78e-02 5.92e-02h  1
  32  1.6807680e+01 3.51e+00 1.25e+00  -3.8 2.22e+00  -0.8 3.92e-02 2.66e-01h  1
  33  1.6896051e+01 2.98e+00 1.00e+00  -3.8 1.74e+00  -1.3 5.12e-01 1.50e-01h  1
  34  1.6993960e+01 2.37e+00 9.00e-01  -3.8 1.43e+00  -1.8 6.37e-01 2.05e-01h  1
  35  1.7368156e+01 1.44e+00 2.16e-01  -3.8 9.45e-01  -1.4 1.00e+00 9.43e-01h  1
  36  1.7371683e+01 1.17e+00 1.75e-01  -3.8 1.97e+00  -0.9 7.34e-02 2.00e-01h  3
  37  1.7370783e+01 9.52e-01 1.42e-01  -3.8 1.75e+00  -1.4 2.70e-01 1.94e-01h  3
  38  1.7373541e+01 7.25e-01 1.09e-01  -3.8 1.22e+00  -1.0 6.22e-02 2.43e-01H  1
  39  1.7366799e+01 9.04e-01 2.35e+00  -3.8 1.85e+00  -1.5 4.26e-02 5.25e-01F  1
iter    objective    inf_pr   inf_du lg(mu)  ||d||  lg(rg) alpha_du alpha_pr  ls
  40  1.7368441e+01 1.17e+00 7.57e-01  -3.8 8.28e-01  -1.1 9.58e-01 6.89e-01h  1
  41  1.7364616e+01 4.40e-01 3.27e-01  -3.8 7.09e+00  -1.5 5.94e-01 5.71e-01H  1
  42  1.7358973e+01 6.92e-02 2.46e-02  -3.8 2.95e-01  -1.1 1.00e+00 1.00e+00h  1
  43  1.7341309e+01 2.97e-02 1.01e-02  -3.8 1.64e-01  -1.6 1.00e+00 6.40e-01h  1
  44  1.7280466e+01 5.16e-02 8.24e-02  -3.8 3.44e-01  -2.1 8.12e-01 1.00e+00f  1
  45  1.7175248e+01 4.85e-01 5.24e-02  -3.8 1.06e+00  -2.5 1.00e+00 7.14e-01h  1
  46  1.7172595e+01 1.78e-01 1.60e-02  -3.8 4.30e-02  -1.2 1.00e+00 1.00e+00h  1
  47  1.7149877e+01 6.83e-01 8.80e-03  -3.8 2.54e-01  -1.7 1.00e+00 1.00e+00h  1
  48  1.7115265e+01 3.17e-01 7.11e-03  -3.8 5.98e-01  -2.2 6.93e-01 6.66e-01h  1
  49  1.7030684e+01 2.57e-01 7.46e-03  -3.8 6.66e-01  -2.6 1.00e+00 6.84e-01h  1
iter    objective    inf_pr   inf_du lg(mu)  ||d||  lg(rg) alpha_du alpha_pr  ls
  50  1.6832392e+01 1.17e+00 1.25e-02  -3.8 2.49e+00  -3.1 6.56e-01 7.54e-01h  1
  51  1.6767969e+01 1.26e+00 5.24e-02  -3.8 1.09e+00  -2.7 6.06e-01 9.62e-01h  1
  52  1.6755354e+01 5.53e-01 2.13e-02  -3.8 9.17e-01  -2.3 1.35e-01 5.71e-01h  1
  53  1.6722501e+01 6.59e+00 2.39e-02  -3.8 8.68e+00  -2.7 1.02e-01 2.19e-01f  1
  54  1.6729141e+01 5.52e+00 2.60e-01  -3.8 5.35e+00  -2.3 2.59e-01 1.52e-01h  1
  55  1.6728308e+01 4.10e+00 2.56e+00  -3.8 3.71e+00  -1.0 3.49e-03 6.33e-02h  1
  56  1.6736915e+01 1.03e+00 8.86e-01  -3.8 1.13e+00  -1.5 6.01e-02 1.00e+00h  1
  57  1.6736909e+01 2.43e-01 1.62e-01  -3.8 4.26e-01  -1.0 8.10e-01 9.62e-01h  1
  58  1.6732552e+01 4.88e-02 5.91e-02  -3.8 2.46e-01  -1.5 1.00e+00 1.00e+00h  1
  59  1.6719312e+01 1.39e-02 1.14e-02  -3.8 1.18e-01  -2.0 8.73e-01 1.00e+00h  1
iter    objective    inf_pr   inf_du lg(mu)  ||d||  lg(rg) alpha_du alpha_pr  ls
  60  1.6690030e+01 1.32e-01 1.09e-02  -3.8 3.67e-01  -2.5 1.00e+00 9.84e-01h  1
  61  1.6653448e+01 1.73e+00 4.68e-02  -3.8 2.07e+00  -2.9 6.30e-01 5.51e-01h  1
  62  1.6573446e+01 6.21e-01 1.39e-02  -3.8 2.08e+00  -3.4 4.07e-01 6.37e-01h  1
  63  1.6550354e+01 7.28e-01 1.76e-02  -3.8 6.33e-01  -3.0 5.73e-01 1.00e+00h  1
  64  1.6541448e+01 1.18e+00 2.06e-01  -3.8 4.48e-01  -2.6 9.62e-01 1.00e+00h  1
  65  1.6532686e+01 1.55e+00 1.89e-01  -3.8 9.05e-01  -2.1 1.00e+00 1.00e+00h  1
  66  1.6532712e+01 1.47e+00 1.77e-01  -3.8 4.49e-01  -0.8 1.00e+00 6.25e-02h  5
  67  1.6536382e+01 9.53e-01 1.86e+00  -3.8 2.26e-01   0.5 1.00e+00 1.00e+00h  1
  68  1.6539705e+01 2.56e-01 9.37e-01  -3.8 3.98e-01   0.0 1.00e+00 1.00e+00h  1
  69  1.6541515e+01 2.11e-02 1.87e-01  -3.8 7.72e-02  -0.4 1.00e+00 1.00e+00h  1
iter    objective    inf_pr   inf_du lg(mu)  ||d||  lg(rg) alpha_du alpha_pr  ls
  70  1.6541014e+01 1.11e-03 2.17e-02  -3.8 1.88e-02  -0.9 1.00e+00 1.00e+00h  1
  71  1.6539404e+01 1.01e-02 4.14e-03  -3.8 5.77e-02  -1.4 1.00e+00 1.00e+00h  1
  72  1.6536347e+01 1.70e-01 5.12e-02  -3.8 1.35e-01  -1.9 1.00e+00 1.00e+00h  1
  73  1.6530101e+01 8.45e-02 1.15e-02  -3.8 2.14e-01  -2.3 1.00e+00 1.00e+00h  1
  74  1.6528396e+01 8.33e-01 1.10e-02  -3.8 1.52e+01  -2.8 7.79e-02 4.53e-02h  2
  75  1.6501362e+01 7.40e-01 5.15e-03  -3.8 1.55e+00  -3.3 1.00e+00 7.71e-01h  1
  76  1.6488857e+01 3.08e+00 5.46e-02  -3.8 2.13e+00  -2.9 4.47e-01 1.00e+00h  1
  77  1.6474948e+01 2.09e+00 3.33e-02  -3.8 2.92e+00  -3.4 4.59e-01 3.89e-01h  1
  78  1.6475154e+01 1.72e+00 1.86e-02  -3.8 6.65e-01  -2.0 4.41e-01 3.67e-01h  1
  79  1.6471825e+01 2.79e-01 1.11e-02  -3.8 9.23e-01  -2.5 1.00e+00 8.42e-01h  1
iter    objective    inf_pr   inf_du lg(mu)  ||d||  lg(rg) alpha_du alpha_pr  ls
  80  1.6457118e+01 2.77e+00 2.55e-02  -3.8 1.26e+00  -3.0 1.00e+00 1.00e+00h  1
  81  1.6457495e+01 2.73e+00 1.22e-01  -3.8 1.62e+00  -1.6 3.35e-01 8.02e-02h  3
  82  1.6458361e+01 2.26e+00 4.22e-01  -3.8 7.11e-01  -1.2 2.06e-01 7.96e-01h  1
  83  1.6459491e+01 1.12e+00 4.85e-01  -3.8 4.82e-01   0.1 1.78e-02 3.77e-01h  1
  84  1.6463649e+01 2.31e-01 1.90e-01  -3.8 4.03e-01  -0.4 7.18e-01 1.00e+00h  1
  85  1.6463214e+01 2.45e-02 2.35e-02  -3.8 3.75e-02  -0.8 1.00e+00 1.00e+00h  1
  86  1.6460914e+01 2.46e-02 2.31e-02  -3.8 9.43e+00    -  1.02e-01 1.42e-02h  1
  87  1.6451307e+01 2.43e-02 1.54e-02  -3.8 1.80e+00    -  7.78e-01 2.55e-01h  1
  88  1.6443534e+01 3.25e-01 5.03e-03  -3.8 1.20e+00    -  1.00e+00 6.52e-01h  1
  89  1.6442559e+01 4.19e-01 1.53e-02  -3.8 1.27e+00    -  1.00e+00 1.00e+00h  1
iter    objective    inf_pr   inf_du lg(mu)  ||d||  lg(rg) alpha_du alpha_pr  ls
  90  1.6442763e+01 1.42e-01 3.96e-03  -3.8 8.35e-02  -1.3 1.00e+00 1.00e+00h  1
  91  1.6441880e+01 1.00e-01 1.87e-03  -3.8 2.21e-01    -  1.00e+00 6.75e-01h  1
  92  1.6439847e+01 3.58e-01 2.70e-03  -3.8 1.10e+00    -  1.00e+00 1.00e+00h  1
  93  1.6439780e+01 7.37e-02 4.04e-03  -3.8 2.55e-01  -1.8 1.00e+00 1.00e+00h  1
  94  1.6436915e+01 7.58e-01 5.05e-03  -3.8 1.66e+00    -  1.00e+00 1.00e+00h  1
  95  1.6436380e+01 3.34e-01 6.36e-03  -3.8 2.53e-01  -2.3 1.00e+00 1.00e+00h  1
  96  1.6435687e+01 2.56e-01 3.84e-02  -3.8 1.82e-01  -2.8 1.00e+00 1.00e+00h  1
  97  1.6433045e+01 2.46e-01 9.74e-03  -3.8 6.20e-01  -3.2 1.00e+00 1.00e+00h  1
  98  1.6431144e+01 1.44e-01 1.93e-03  -3.8 3.31e-01  -2.8 1.00e+00 1.00e+00h  1
  99  1.6425538e+01 4.80e-01 1.44e-03  -3.8 1.10e+00  -3.3 7.54e-01 8.00e-01h  1
iter    objective    inf_pr   inf_du lg(mu)  ||d||  lg(rg) alpha_du alpha_pr  ls
 100  1.6422023e+01 4.25e-01 2.85e-02  -3.8 7.17e-01  -2.9 4.26e-01 1.00e+00h  1
 101  1.6408816e+01 1.52e+00 6.54e-03  -3.8 2.18e+00  -3.3 4.39e-01 7.59e-01h  1
 102  1.6403810e+01 1.91e+00 1.98e-02  -3.8 1.68e+00  -2.9 5.76e-01 7.74e-01h  1
 103  1.6394390e+01 1.84e+00 5.47e-02  -3.8 1.66e+00  -3.4 3.29e-01 1.00e+00h  1
 104  1.6391189e+01 2.79e+00 6.81e-03  -3.8 1.70e+00  -3.9 4.01e-01 9.35e-01h  1
 105  1.6390002e+01 1.48e+00 4.61e-03  -3.8 1.75e+00  -3.4 6.12e-01 5.45e-01h  1
 106  1.6393604e+01 2.84e+00 5.25e-03  -3.8 7.64e-01  -3.0 3.27e-01 1.00e+00h  1
 107  1.6392635e+01 1.91e+00 5.11e-02  -3.8 1.28e+00  -3.5 8.66e-01 1.90e-01h  2
 108  1.6392416e+01 7.08e-01 1.13e-01  -3.8 5.31e-01  -3.1 1.00e+00 1.00e+00h  1
 109  1.6393157e+01 1.88e-01 1.79e-02  -3.8 3.84e-01  -3.5 1.00e+00 1.00e+00h  1
iter    objective    inf_pr   inf_du lg(mu)  ||d||  lg(rg) alpha_du alpha_pr  ls
 110  1.6393952e+01 2.58e-02 4.03e-03  -3.8 3.52e-01    -  1.00e+00 1.00e+00h  1
 111  1.6393971e+01 2.96e-03 8.88e-04  -3.8 4.83e-02    -  1.00e+00 1.00e+00h  1
 112  1.6393981e+01 2.51e-04 1.17e-04  -3.8 2.89e-03    -  1.00e+00 1.00e+00h  1
 113  1.6386877e+01 1.03e-01 3.91e-03  -5.7 7.63e-01    -  8.94e-01 5.72e-01h  1
 114  1.6384585e+01 6.48e-02 5.86e-03  -5.7 7.33e-01    -  8.51e-01 4.79e-01h  1
 115  1.6383247e+01 1.12e-01 9.55e-03  -5.7 8.94e-01    -  1.00e+00 6.30e-01h  1
 116  1.6382430e+01 7.57e-03 6.00e-04  -5.7 2.67e-01  -3.1 1.00e+00 1.00e+00h  1
 117  1.6381641e+01 6.81e-02 5.01e-03  -5.7 1.96e+00    -  1.00e+00 2.48e-01h  1
 118  1.6381578e+01 2.98e-02 1.11e-03  -5.7 1.83e-01    -  1.00e+00 6.49e-01h  1
 119  1.6381584e+01 3.69e-02 1.78e-03  -5.7 5.76e-02    -  1.00e+00 1.00e+00h  1
iter    objective    inf_pr   inf_du lg(mu)  ||d||  lg(rg) alpha_du alpha_pr  ls
 120  1.6381582e+01 3.86e-02 5.88e-04  -5.7 3.45e-02    -  1.00e+00 1.00e+00h  1
 121  1.6381567e+01 1.32e-01 4.63e-03  -5.7 5.97e-02    -  1.00e+00 1.00e+00h  1
 122  1.6381466e+01 2.21e-01 4.25e-03  -5.7 1.40e-01    -  1.00e+00 1.00e+00h  1
 123  1.6381089e+01 7.97e-01 2.56e-02  -5.7 4.51e-01    -  1.00e+00 7.36e-01h  1
 124  1.6376912e+01 4.90e-01 1.15e-02  -5.7 4.98e-01    -  5.96e-01 1.00e+00h  1
 125  1.6379382e+01 1.10e-01 4.29e-03  -5.7 1.40e-01  -2.7 1.00e+00 1.00e+00h  1
 126  1.6382458e+01 1.07e-02 9.51e-03  -5.7 2.55e-01    -  7.93e-01 1.00e+00H  1
 127  1.6382247e+01 1.09e-02 8.60e-03  -5.7 4.71e-01    -  8.25e-01 9.57e-02h  1
 128  1.6382192e+01 9.91e-03 5.31e-03  -5.7 2.98e-01    -  5.56e-01 1.00e+00F  1
 129  1.6381725e+01 2.34e-02 5.05e-03  -5.7 2.53e-01  -3.2 8.56e-01 2.67e-01h  1
iter    objective    inf_pr   inf_du lg(mu)  ||d||  lg(rg) alpha_du alpha_pr  ls
 130  1.6381482e+01 8.96e-02 6.07e-03  -5.7 1.97e-01    -  1.00e+00 8.66e-01F  1
 131  1.6382098e+01 1.19e-02 5.19e-03  -5.7 1.69e-01    -  1.00e+00 1.00e+00H  1
 132  1.6382004e+01 9.90e-03 5.08e-03  -5.7 2.34e+00    -  5.80e-01 1.61e-02h  4
 133  1.6381962e+01 9.31e-03 9.00e-03  -5.7 1.28e+00    -  1.00e+00 1.36e-02h  6
 134  1.6381884e+01 1.47e-02 6.09e-03  -5.7 4.10e-01    -  1.00e+00 6.25e-02h  5
 135  1.6381272e+01 8.12e-02 3.74e-03  -5.7 2.11e-01    -  1.00e+00 1.00e+00h  1
 136  1.6381724e+01 2.82e-02 3.73e-03  -5.7 1.23e-01    -  1.00e+00 1.00e+00H  1
 137  1.6382345e+01 1.59e-02 1.16e-02  -5.7 2.13e-01    -  1.00e+00 1.00e+00H  1
 138  1.6382217e+01 1.48e-02 1.08e-02  -5.7 4.41e-01    -  8.63e-01 6.70e-02h  4
 139  1.6380869e+01 4.49e-01 1.04e-02  -5.7 3.62e-01    -  1.00e+00 1.00e+00h  1
iter    objective    inf_pr   inf_du lg(mu)  ||d||  lg(rg) alpha_du alpha_pr  ls
 140  1.6380376e+01 5.90e-01 2.14e-02  -5.7 1.00e+01    -  2.39e-01 2.27e-02h  1
 141  1.6378738e+01 4.70e-01 1.14e-02  -5.7 2.70e-01    -  5.76e-01 1.00e+00h  1
 142  1.6377614e+01 1.61e+00 4.97e-02  -5.7 6.28e+00  -3.6 3.07e-01 9.76e-02h  1
 143  1.6350165e+01 5.73e-01 8.70e-02  -5.7 7.55e-01    -  8.31e-02 1.00e+00h  1
 144  1.6360257e+01 4.07e-01 6.15e-02  -5.7 8.73e-01  -3.2 1.46e-01 2.87e-01H  1
 145  1.6379346e+01 1.18e-01 3.63e-03  -5.7 5.65e-01    -  1.00e+00 1.00e+00h  1
 146  1.6382104e+01 4.99e-03 7.69e-03  -5.7 1.12e-01    -  8.11e-01 1.00e+00H  1
 147  1.6381997e+01 4.71e-03 6.97e-03  -5.7 2.69e-01    -  8.76e-01 9.61e-02h  1
 148  1.6382690e+01 2.26e-03 5.88e-03  -5.7 2.32e-01    -  3.84e-01 1.00e+00H  1
 149  1.6381956e+01 2.26e-02 2.88e-03  -5.7 1.42e-01  -2.8 7.33e-01 1.00e+00H  1
iter    objective    inf_pr   inf_du lg(mu)  ||d||  lg(rg) alpha_du alpha_pr  ls
 150  1.6381888e+01 2.07e-02 4.89e-03  -5.7 2.09e-01    -  1.00e+00 8.60e-02h  1
 151  1.6381597e+01 1.04e-01 2.37e-03  -5.7 4.05e-01    -  8.69e-01 1.00e+00F  1
 152  1.6381583e+01 1.26e-02 3.34e-04  -5.7 7.61e-02    -  1.00e+00 1.00e+00h  1
 153  1.6381598e+01 1.73e-03 1.40e-03  -5.7 1.47e-02    -  1.00e+00 1.00e+00H  1
 154  1.6381603e+01 7.50e-04 5.68e-04  -5.7 3.11e-02    -  1.00e+00 1.00e+00H  1
 155  1.6381668e+01 4.85e-04 4.19e-03  -5.7 5.47e-02    -  1.00e+00 1.00e+00H  1
 156  1.6381654e+01 4.56e-04 3.93e-03  -5.7 1.58e-01    -  1.00e+00 6.25e-02h  5
 157  1.6381566e+01 7.23e-02 2.17e-03  -5.7 1.28e-01    -  1.00e+00 5.00e-01h  2
 158  1.6381552e+01 6.33e-02 2.04e-03  -5.7 9.73e-02    -  1.00e+00 1.25e-01h  4
 159  1.6381551e+01 9.98e-04 7.99e-05  -5.7 3.67e-02    -  1.00e+00 1.00e+00h  1
iter    objective    inf_pr   inf_du lg(mu)  ||d||  lg(rg) alpha_du alpha_pr  ls
 160  1.6381592e+01 2.57e-04 1.85e-05  -5.7 1.64e-03    -  1.00e+00 1.00e+00h  1
 161  1.6381592e+01 3.22e-05 2.64e-06  -5.7 6.98e-04    -  1.00e+00 1.00e+00h  1
 162  1.6381592e+01 9.39e-07 6.69e-08  -5.7 1.38e-04    -  1.00e+00 1.00e+00h  1
 163  1.6381501e+01 1.38e-04 2.54e-04  -7.0 3.25e-02    -  1.00e+00 8.79e-01h  1
 164  1.6381489e+01 6.57e-05 3.68e-07  -7.0 1.37e-02    -  1.00e+00 1.00e+00h  1
 165  1.6381489e+01 2.72e-08 1.04e-09  -7.0 5.50e-04    -  1.00e+00 1.00e+00h  1

Number of Iterations....: 165

                                   (scaled)                 (unscaled)
Objective...............:   1.6381488725780486e+01    1.6381488725780486e+01
Dual infeasibility......:   1.0351656773790758e-09    1.0351656773790758e-09
Constraint violation....:   2.7211582320774141e-08    2.7211582320774141e-08
Variable bound violation:   0.0000000000000000e+00    0.0000000000000000e+00
Complementarity.........:   9.2762841428299325e-08    9.2762841428299325e-08
Overall NLP error.......:   9.2762841428299325e-08    9.2762841428299325e-08


Number of objective function evaluations             = 278
Number of objective gradient evaluations             = 166
Number of equality constraint evaluations            = 278
Number of inequality constraint evaluations          = 278
Number of equality constraint Jacobian evaluations   = 166
Number of inequality constraint Jacobian evaluations = 166
Number of Lagrangian Hessian evaluations             = 165
Total seconds in IPOPT                               = 24.928

EXIT: Optimal Solution Found.
      solver  :   t_proc      (avg)   t_wall      (avg)    n_eval
       nlp_f  |   9.08ms ( 32.66us)   9.12ms ( 32.79us)       278
       nlp_g  |   1.05 s (  3.76ms)   1.05 s (  3.79ms)       278
  nlp_grad_f  |   8.95ms ( 53.57us)   8.99ms ( 53.81us)       167
  nlp_hess_l  |  17.02 s (103.14ms)  17.13 s (103.83ms)       165
   nlp_jac_g  |   4.46 s ( 26.68ms)   4.49 s ( 26.86ms)       167
       total  |  24.77 s ( 24.77 s)  24.93 s ( 24.93 s)         1
  Success: True
  Cost: 16.3815
  Iterations: 165
  Solve time: 40.13 s
  Max obstacle slack: 0.0000e+00
  Min obstacle clearance: inf m
  Accepted: True

Accepted attempt: baseline

Generating plots...
  Saved: /run/media/saveas/Secondary-Storage/Masters/CS234/CS234_Reinforcement_Learning/Final Project/CS234_Final_Project/results/trajectory_optimization/nlp/TRACK2_280m/base/ipopt_single_stage_trajectory.png
  Saved: /run/media/saveas/Secondary-Storage/Masters/CS234/CS234_Reinforcement_Learning/Final Project/CS234_Final_Project/results/trajectory_optimization/nlp/TRACK2_280m/base/ipopt_single_stage_states.png
  Saved: /run/media/saveas/Secondary-Storage/Masters/CS234/CS234_Reinforcement_Learning/Final Project/CS234_Final_Project/results/trajectory_optimization/nlp/TRACK2_280m/base/ipopt_single_stage_controls.png

Generating animation...
  Saved: /run/media/saveas/Secondary-Storage/Masters/CS234/CS234_Reinforcement_Learning/Final Project/CS234_Final_Project/results/trajectory_optimization/nlp/TRACK2_280m/base/ipopt_single_stage_animation.gif

======================================================================
SUMMARY
======================================================================
Selected attempt: baseline
Attempt                    N      Subs   Clear    Iters    Time [s]   Cost [s]   Max Sigma    Min Clear [m]  Accepted
-----------------------------------------------------------------------------------------------------------------------------
baseline                   120    7      0.000    165      40.13      16.3815    0.000e+00    inf            True

All outputs saved to: /run/media/saveas/Secondary-Storage/Masters/CS234/CS234_Reinforcement_Learning/Final Project/CS234_Final_Project/results/trajectory_optimization/nlp/TRACK2_280m/base
